problems/VanDerWaerdenNumbers/VanDerWaerden-models/noch/O2/lingeling/model_2-k3l4n41-solution000001.eprime-solution
language ESSENCE' 1.0

letting p_PartitionAsSet_ExplicitR6_ExplicitVarSizeWithDummy be
        [[1, 16, 18, 28, 31, 33, 34, 39, 42, 42, 42, 42, 42, 42, 42, 42, 42, 42, 42, 42, 42, 42, 42, 42, 42, 42, 42, 42,
          42, 42, 42, 42, 42, 42, 42, 42, 42, 42, 42, 42, 42; int(1..41)],
         [2, 4, 6, 7, 10, 11, 15, 17, 22, 24, 25, 26, 29, 30, 32, 38, 40, 41, 42, 42, 42, 42, 42, 42, 42, 42, 42, 42,
          42, 42, 42, 42, 42, 42, 42, 42, 42, 42, 42, 42, 42; int(1..41)],
         [3, 5, 8, 9, 12, 13, 14, 19, 20, 21, 23, 27, 35, 36, 37, 42, 42, 42, 42, 42, 42, 42, 42, 42, 42, 42, 42, 42,
          42, 42, 42, 42, 42, 42, 42, 42, 42, 42, 42, 42, 42; int(1..41)]; int(1..3)]
